RLW03
Position Depot: Center
Horizon for Depot: Large
Position of customers: Random
Distribution of the demand: Small
Width of time windows: Wide
Distribution of the service: Small

VEHICLE 
NUMBER 	 CAPACITY 
 8 	 	 48 
 
CUSTOMER
CUST NO. 	 XCOORD.  	 YCOORD. 	 DEMAND 	 READY TIME 	 DUE DATE 	 SERVICE TIME 
 0 	 	 500 	 	 500 	 	 0 	 	 0 	 	 3637 	 	 0 
  1 	 	 254 	 	 387 	 	 10 	 	 2190 	 	 2392 	 	 62 
  2 	 	 541 	 	 449 	 	 9 	 	 -22 	 	 193 	 	 90 
  3 	 	 996 	 	 620 	 	 6 	 	 3254 	 	 3587 	 	 63 
  4 	 	 177 	 	 291 	 	 6 	 	 2070 	 	 2372 	 	 67 
  5 	 	 318 	 	 599 	 	 7 	 	 3195 	 	 3623 	 	 100 
  6 	 	 881 	 	 828 	 	 6 	 	 2042 	 	 2424 	 	 81 
  7 	 	 430 	 	 876 	 	 5 	 	 2997 	 	 3303 	 	 86 
  8 	 	 900 	 	 392 	 	 6 	 	 1035 	 	 1290 	 	 51 
  9 	 	 120 	 	 582 	 	 10 	 	 -52 	 	 427 	 	 68 
  10 	 	 988 	 	 690 	 	 10 	 	 2524 	 	 2793 	 	 54 
  11 	 	 512 	 	 382 	 	 9 	 	 3119 	 	 3478 	 	 77 
  12 	 	 515 	 	 693 	 	 7 	 	 2872 	 	 3342 	 	 70 
  13 	 	 0 	 	 126 	 	 8 	 	 2725 	 	 3155 	 	 72 
  14 	 	 312 	 	 552 	 	 8 	 	 1144 	 	 1636 	 	 81 
  15 	 	 115 	 	 663 	 	 8 	 	 1414 	 	 1718 	 	 85 
  16 	 	 3 	 	 284 	 	 10 	 	 2219 	 	 2680 	 	 62 
  17 	 	 945 	 	 472 	 	 9 	 	 3173 	 	 3637 	 	 76 
  18 	 	 959 	 	 762 	 	 10 	 	 1106 	 	 1393 	 	 78 
  19 	 	 634 	 	 684 	 	 9 	 	 616 	 	 1000 	 	 83 
  20 	 	 3 	 	 694 	 	 8 	 	 2164 	 	 2582 	 	 75 
  21 	 	 344 	 	 881 	 	 9 	 	 2276 	 	 2510 	 	 81 
  22 	 	 763 	 	 253 	 	 10 	 	 2483 	 	 2831 	 	 90 
  23 	 	 21 	 	 416 	 	 10 	 	 2437 	 	 2716 	 	 90 
  24 	 	 797 	 	 959 	 	 8 	 	 3036 	 	 3374 	 	 61 
  25 	 	 785 	 	 75 	 	 9 	 	 184 	 	 562 	 	 66 
  26 	 	 817 	 	 725 	 	 8 	 	 3159 	 	 3637 	 	 69 
  27 	 	 155 	 	 473 	 	 7 	 	 1841 	 	 2127 	 	 79 
  28 	 	 522 	 	 46 	 	 7 	 	 1965 	 	 2215 	 	 97 
  29 	 	 604 	 	 432 	 	 5 	 	 1337 	 	 1571 	 	 92 
  30 	 	 453 	 	 20 	 	 6 	 	 1936 	 	 2218 	 	 94 
  31 	 	 95 	 	 411 	 	 10 	 	 2650 	 	 2991 	 	 88 
  32 	 	 311 	 	 213 	 	 9 	 	 689 	 	 1010 	 	 71 
  33 	 	 275 	 	 70 	 	 5 	 	 2629 	 	 3096 	 	 92 
  34 	 	 377 	 	 479 	 	 9 	 	 2171 	 	 2396 	 	 60 
  35 	 	 304 	 	 668 	 	 10 	 	 2680 	 	 3164 	 	 67 
  36 	 	 364 	 	 624 	 	 10 	 	 750 	 	 1150 	 	 85 
  37 	 	 409 	 	 176 	 	 8 	 	 3068 	 	 3400 	 	 89 
  38 	 	 337 	 	 733 	 	 6 	 	 896 	 	 1221 	 	 92 
  39 	 	 31 	 	 872 	 	 9 	 	 1468 	 	 1830 	 	 77 
  40 	 	 955 	 	 779 	 	 6 	 	 3048 	 	 3385 	 	 62 
  41 	 	 74 	 	 640 	 	 10 	 	 430 	 	 926 	 	 78 
  42 	 	 595 	 	 935 	 	 10 	 	 439 	 	 773 	 	 79 
  43 	 	 539 	 	 166 	 	 6 	 	 3053 	 	 3323 	 	 95 
  44 	 	 451 	 	 369 	 	 7 	 	 2874 	 	 3279 	 	 65 
  45 	 	 118 	 	 735 	 	 6 	 	 2764 	 	 3120 	 	 54 
  46 	 	 108 	 	 233 	 	 8 	 	 1090 	 	 1542 	 	 56 
  47 	 	 978 	 	 191 	 	 5 	 	 415 	 	 626 	 	 98 
  48 	 	 221 	 	 699 	 	 5 	 	 1790 	 	 2260 	 	 96 
  49 	 	 987 	 	 908 	 	 9 	 	 1623 	 	 1998 	 	 92 
  50 	 	 857 	 	 281 	 	 5 	 	 2367 	 	 2655 	 	 56 
 